n_res = 4;
rcap = [18, 16, 90, 60];
rtype = [1, 1, 2, 2];
n_tasks = 16;
modes = [ {1, 2, 3, 4, 5}, {6, 7, 8, 9, 10}, {11, 12, 13, 14, 15}, {16, 17, 18, 19, 20}, {21, 22, 23, 24, 25}, {26, 27, 28, 29, 30}, {31, 32, 33, 34, 35}, {36, 37, 38, 39, 40}, {41, 42, 43, 44, 45}, {46, 47, 48, 49, 50}, {51, 52, 53, 54, 55}, {56, 57, 58, 59, 60}, {61, 62, 63, 64, 65}, {66, 67, 68, 69, 70}, {71, 72, 73, 74, 75}, {76, 77, 78, 79, 80} ];
succ = [ {9, 10}, {4, 5}, {5, 7, 11}, {16}, {6, 13}, {8, 9, 10}, {8, 10}, {12, 14, 15}, {12, 14, 15}, {14, 16}, {12, 13}, {16}, {15}, {}, {}, {} ];
n_opt = 80;
dur = [4, 5, 6, 6, 9, 1, 2, 3, 7, 10, 3, 5, 8, 9, 10, 2, 7, 7, 7, 9, 2, 3, 5, 6, 8, 4, 4, 4, 5, 7, 2, 3, 7, 9, 9, 1, 3, 4, 5, 6, 3, 4, 6, 7, 8, 1, 2, 2, 2, 7, 2, 6, 7, 7, 8, 1, 2, 5, 5, 7, 1, 2, 2, 9, 10, 2, 2, 5, 8, 10, 3, 5, 6, 8, 10, 1, 3, 4, 5, 5];
rreq = [| 10,  9,  9,  9,  9,  9,  9,  8,  8,  7,  8,  8,  6,  5,  3,  6,  6,  4,  5,  3,  3,  3,  2,  2,  1,  7, 10,  9,  7,  3,  7,  6,  5,  4,  5,  8,  7,  4,  4,  1,  6,  6,  6,  6,  6,  8,  5,  6,  6,  3,  5,  5,  5,  4,  4,  9,  6,  5,  4,  2,  9,  9,  9,  8,  8,  6,  5,  5,  4,  3,  9,  9,  8,  7,  7,  8,  8,  7,  5,  6
        |  7,  7,  7,  7,  7,  8,  7,  5,  5,  3,  9,  9,  6,  5,  3,  7,  7,  5,  7,  4,  7,  7,  6,  6,  5, 10,  9,  9,  7,  7,  9,  9,  8,  7,  8, 10,  9,  8,  8,  7,  6,  6,  5,  5,  4,  7,  5,  4,  5,  3,  2,  2,  2,  1,  1,  6,  4,  3,  4,  2,  9,  8,  7,  6,  2,  6,  6,  6,  3,  3,  5,  4,  3,  3,  2,  2,  2,  1,  1,  1
        |  7,  7,  7,  6,  6,  8,  8,  7,  5,  5,  8,  8,  7,  7,  6,  9,  9,  9,  9,  8, 10,  9,  9,  8,  8,  8,  8,  8,  8,  8,  8,  6,  4,  4,  3,  5,  4,  4,  3,  3,  8,  7,  6,  5,  3,  7,  5,  6,  6,  3,  8,  6,  4,  6,  4, 10,  9,  8,  8,  7,  7,  6,  7,  5,  3,  9, 10,  8,  6,  4,  8,  6,  5,  5,  4,  7,  4,  3,  3,  2
        |  4,  4,  3,  4,  3,  1,  1,  1,  1,  1,  8,  7,  5,  5,  3,  7,  4,  6,  5,  2,  6,  5,  4,  3,  1,  9,  7,  8,  5,  3,  4,  3,  2,  1,  2,  9,  8,  6,  4,  2, 10, 10, 10,  9,  9,  8,  8,  8,  7,  7,  8,  7,  4,  5,  3,  5,  3,  2,  2,  2,  2,  2,  2,  1,  1,  9,  9,  7,  7,  3,  5,  5,  4,  4,  4,  6,  5,  3,  2,  1 |];
